
Gurobi 9.1.2 (win64) logging started Tue Dec  7 09:09:44 2021

Gurobi Optimizer version 9.1.2 build v9.1.2rc0 (win64)
Thread count: 8 physical cores, 8 logical processors, using up to 8 threads
Optimize a model with 1 rows, 137 columns and 136 nonzeros
Model fingerprint: 0x07b82f23
Variable types: 1 continuous, 136 integer (136 binary)
Coefficient statistics:
  Matrix range     [1e+00, 1e+01]
  Objective range  [1e+00, 1e+00]
  Bounds range     [4e+01, 4e+01]
  RHS range        [1e+01, 1e+01]
Presolve time: 0.00s
Presolved: 1 rows, 137 columns, 136 nonzeros
Variable types: 1 continuous, 136 integer (136 binary)

Root simplex log...

Iteration    Objective       Primal Inf.    Dual Inf.      Time
       0   -4.2353130e+01   3.972881e-01   0.000000e+00     15s
       6   -2.7570204e+01   0.000000e+00   0.000000e+00     15s

Root relaxation: objective -2.757020e+01, 6 iterations, 0.00 seconds

    Nodes    |    Current Node    |     Objective Bounds      |     Work
 Expl Unexpl |  Obj  Depth IntInf | Incumbent    BestBd   Gap | It/Node Time

     0     0  -27.57020    0    1          -  -27.57020      -     -   15s
H    0     0                       0.8656260  -27.57020  3285%     -   15s
H    0     0                       0.8374852  -27.57020  3392%     -   17s
     0     0  -15.21533    0    4    0.83749  -15.21533  1917%     -   17s
     0     0  -13.82359    0    8    0.83749  -13.82359  1751%     -   19s
     0     0  -13.19913    0    9    0.83749  -13.19913  1676%     -   19s
H    0     0                       0.8372970  -13.19913  1676%     -   20s
     0     0  -12.13493    0    9    0.83730  -12.13493  1549%     -   20s
     0     0  -11.90234    0   11    0.83730  -11.90234  1522%     -   20s
     0     0  -11.68843    0   11    0.83730  -11.68843  1496%     -   21s
     0     0  -11.65107    0   12    0.83730  -11.65107  1492%     -   21s
     0     0  -11.64985    0   12    0.83730  -11.64985  1491%     -   21s
     0     0  -11.19539    0    9    0.83730  -11.19539  1437%     -   21s
     0     0  -11.15527    0   10    0.83730  -11.15527  1432%     -   22s
     0     0  -11.13188    0   10    0.83730  -11.13188  1430%     -   22s
     0     0  -11.13156    0   10    0.83730  -11.13156  1429%     -   22s
     0     0  -11.12020    0   10    0.83730  -11.12020  1428%     -   22s
     0     0  -11.12020    0    9    0.83730  -11.12020  1428%     -   23s
     0     0  -10.96477    0   10    0.83730  -10.96477  1410%     -   24s
     0     0  -10.96477    0   10    0.83730  -10.96477  1410%     -   25s
     0     0  -10.96331    0   10    0.83730  -10.96331  1409%     -   25s
     0     0  -10.70336    0   10    0.83730  -10.70336  1378%     -   25s
     0     0  -10.69133    0   10    0.83730  -10.69133  1377%     -   25s
     0     0  -10.46791    0   10    0.83730  -10.46791  1350%     -   25s
     0     0  -10.42744    0    9    0.83730  -10.42744  1345%     -   25s
     0     0  -10.36521    0   10    0.83730  -10.36521  1338%     -   25s
     0     0  -10.35943    0   10    0.83730  -10.35943  1337%     -   25s
     0     0  -10.34596    0   10    0.83730  -10.34596  1336%     -   25s
     0     2  -10.34596    0   10    0.83730  -10.34596  1336%     -   25s
H  264    91                       0.8372970   -4.87190   682%   4.2   29s
   567    66     cutoff   10         0.83730   -2.28152   372%   4.1   34s

Cutting planes:
  Cover: 1
  MIR: 10
  Lazy constraints: 99

Explored 954 nodes (3900 simplex iterations) in 39.25 seconds
Thread count was 8 (of 8 available processors)

Solution count 4: 0.837297 0.837297 0.837485 0.865626 

Optimal solution found (tolerance 1.00e-04)
Best objective 8.372970426385e-01, best bound 8.372970426385e-01, gap 0.0000%

User-callback calls 2331, time in user-callback 42.38 sec
